16,5	0,0	8,5	17,3	0,0	0,0	0,0	0,0	0,0	5,5
6,6	15,8	0,0	17,8	19,8	0,0	0,0	19,8	0,0	0,0
0,0	0,0	9,7	0,0	17,1	14,9	0,0	0,0	5,6	0,0
18,7	0,0	5,7	0,0	0,0	0,0	12,6	0,0	0,0	0,0
0,0	7,7	0,0	8,9	13,7	0,0	0,0	18,4	0,0	0,0
0,0	18,2	19,2	0,0	9,0	18,0	0,0	0,0	15,9	0,0
0,0	6,0	0,0	5,8	0,0	0,0	7,2	0,0	0,0	18,1
8,7	0,0	6,4	0,0	0,0	0,0	0,0	0,0	0,0	5,4
0,0	17,9	0,0	16,1	15,8	0,0	0,0	9,8	0,0	0,0
0,0	0,0	5,2	0,0	0,0	5,7	19,4	0,0	0,0	16,7
									
3,4	2,6	4,8	4,9	3,3	4,2	3,3	5,0	5,0	3,5
